NAME : ClusterId_262 
COMMENT : (Gillet and Johnson) 
TYPE : CVRP 
DIMENSION : 5 
EDGE_WEIGHT_TYPE : EUC_2D 
CAPACITY : 500 
NODE_COORD_SECTION 
262 -60 -20 
134 -70 -19 
6 -69 -19 
192 -63 -14 
80 -61 -26 
DEMAND_SECTION 
262 220
134 10
6 5
192 94
80 48
DEPOT_SECTION 
262
 -1
EOF